NAME: ACTUAL_TOURS/amz3050
TYPE: TOUR
COMMENT: RouteID_ff30c100-6266-461d-9c56-939775a1defe
DIMENSION: 173
TOUR_SECTION
143
115
26
154
32
4
8
61
134
141
137
3
110
86
94
157
82
126
9
105
2
80
67
21
95
57
171
155
108
156
35
123
62
59
128
91
149
47
78
85
14
24
11
88
55
139
114
124
150
90
48
36
40
33
163
74
10
118
106
101
60
109
23
50
58
63
18
167
1
132
162
130
121
22
164
127
27
93
96
142
170
5
42
117
111
92
84
138
135
81
83
158
69
46
122
146
107
68
43
160
75
153
133
112
15
29
65
53
30
131
172
44
89
147
79
54
166
151
145
72
140
37
7
38
73
20
70
17
113
97
16
173
13
19
161
148
52
49
51
165
87
31
136
98
28
152
144
103
64
76
71
56
125
129
45
100
41
104
169
6
120
102
39
12
34
119
116
25
159
168
66
99
77
-1
EOF
